p cnf 15 27
15 -14 -7 0
-15 -13 5 0
-15 13 -2 0
-15 -11 -10 0
15 11 -7 0
-15 -10 -4 0
-15 8 3 0
-14 -11 2 0
14 -10 1 0
14 -8 5 0
-14 -8 -4 0
14 -3 -2 0
13 11 -10 0
13 10 8 0
-13 -10 3 0
13 -9 2 0
13 2 1 0
-11 10 -2 0
11 -9 1 0
-10 9 8 0
10 -6 5 0
10 -3 2 0
9 8 -6 0
9 7 -5 0
-9 5 3 0
7 5 3 0
-6 -4 1 0
